s td 27 9 35
b 1 7 16
b 2 6 14
b 3 6 17 35
b 4 26 33
b 5 5 15 22
b 6 9 16 21
b 7 9 13 19
b 8 10 20 25
b 9 17 28 35
b 10 1 2 9 10 13 15 20 21 22
b 11 2 9 10 13 15 20 21 22 31
b 12 2 4 10 13 15 21 22 31
b 13 2 4 13 15 22 27 31
b 14 2 3 4 13 27 31
b 15 4 8 13 22 27
b 16 9 13 22 23 31
b 17 1 2 9 10 15 20 21 22 30
b 18 2 10 20 21 22 28 30
b 19 2 21 22 28 30 34
b 20 11 28 30 34
b 21 2 10 17 28
b 22 1 2 9 10 15 30 32
b 23 1 10 12 30 32
b 24 1 12 24 30
b 25 1 15 18 20 30
b 26 1 15 18 29
b 27 15 18 20 33
1 6
2 3
3 9
4 27
5 10
6 10
7 10
8 10
9 21
10 11
10 17
11 12
11 16
12 13
13 14
13 15
17 18
17 22
17 25
18 19
18 21
19 20
22 23
23 24
25 26
25 27
